WARNING: for repeatability, setting FPU to use double precision
============================[ Problem Statistics ]=============================
|                                                                             |
|  Number of variables:           100                                         |
|  Number of clauses:             449                                         |
|  Parse time:                   0.00 s                                       |
|  Eliminated clauses:           0.00 Mb                                      |
|  Simplification time:          0.00 s                                       |
|                                                                             |
============================[ Search Statistics ]==============================
| Conflicts |          ORIGINAL         |          LEARNT          | Progress |
|           |    Vars  Clauses Literals |    Limit  Clauses Lit/Cl |          |
===============================================================================
|       100 |      97      446     1357 |      163      100      6 |  0.020 % |
===============================================================================
restarts              : 3
conflicts             : 239            (69517 /sec)
decisions             : 289            (0.00 % random) (84061 /sec)
propagations          : 5838           (1698080 /sec)
conflict literals     : 1565           (18.40 % deleted)
Memory used           : 13.00 MB
CPU time              : 0.003438 s

SATISFIABLE
